1577076
0 23 54636
23 18 258744
18 15 30639
15 10 17050
10 21 10310
21 13 23856
13 25 12452
25 12 22395
12 24 1644
24 4 8627
4 17 5422
17 3 7922
3 8 8395
8 27 10294
27 28 52270
28 14 72081
14 5 10550
5 1 7286
1 29 6204
29 20 32234
20 22 92634
22 7 183267
7 11 61690
11 2 92669
2 6 5029
6 26 7370
26 9 135487
9 16 52694
16 19 102404
19 0 190821
